3
20
46
40	30
1	2	9	5	14	2	
2	1	14	2	
3	2	8	6	13	7	
4	3	6	6	7	9	6	15	
5	1	15	5	
6	3	6	9	12	6	8	9	
7	1	7	6	
8	2	14	3	6	13	
9	2	9	7	7	13	
10	3	20	3	15	3	24	4	
11	3	22	2	7	12	14	8	
12	2	7	14	15	5	
13	3	18	3	30	2	5	14	
14	3	6	11	4	10	8	7	
15	2	27	3	15	5	
16	3	14	6	16	6	6	12	
17	2	8	13	6	8	
18	3	6	13	8	11	21	3	
19	3	8	9	16	3	14	3	
20	2	6	8	21	4	
